Problem:    Ro116
Rows:       160
Columns:    300 (300 integer, 300 binary)
Non-zeros:  4950
Status:     INTEGER OPTIMAL
Objective:  p1[1,1] = -1602 (MINimum)

   No.   Row name        Activity     Lower bound   Upper bound
------ ------------    ------------- ------------- -------------
     1 appartenenzaCluster[1]
                                   4             4               
     2 appartenenzaCluster[2]
                                   4             4               
     3 appartenenzaCluster[3]
                                   4             4               
     4 appartenenzaCluster[4]
                                   4             4               
     5 appartenenzaCluster[5]
                                   4             4               
     6 rappresentante[1]
                                   1             1             = 
     7 rappresentante[2]
                                   1             1             = 
     8 rappresentante[3]
                                   1             1             = 
     9 rappresentante[4]
                                   1             1             = 
    10 rappresentante[5]
                                   1             1             = 
    11 p1[1,1]                 -1602                             
    12 p1[1,2]                    18                             
    13 p1[1,3]                    18                             
    14 p1[1,4]                    18                             
    15 p1[1,5]                    18                             
    16 p1[1,6]                    18                             
    17 p1[1,7]                    18                             
    18 p1[1,8]                    18                             
    19 p1[1,9]                    18                             
    20 p1[1,10]                   18                             
    21 p1[1,11]                   18                             
    22 p1[1,12]                   18                             
    23 p1[1,13]                   18                             
    24 p1[1,14]                   18                             
    25 p1[1,15]                   18                             
    26 p1[1,16]                   18                             
    27 p1[1,17]                   18                             
    28 p1[1,18]                   18                             
    29 p1[1,19]                   18                             
    30 p1[1,20]                   18                             
    31 p1[1,21]                   18                             
    32 p1[1,22]                   18                             
    33 p1[1,23]                   18                             
    34 p1[1,24]                   18                             
    35 p1[1,25]                   18                             
    36 p1[1,26]                   18                             
    37 p1[1,27]                   18                             
    38 p1[1,28]                   18                             
    39 p1[1,29]                   18                             
    40 p1[1,30]                   18                             
    41 p1[2,1]                   265                             
    42 p1[2,2]                   265                             
    43 p1[2,3]                   265                             
    44 p1[2,4]                   265                             
    45 p1[2,5]                   265                             
    46 p1[2,6]                   265                             
    47 p1[2,7]                   265                             
    48 p1[2,8]                   265                             
    49 p1[2,9]                   265                             
    50 p1[2,10]                  265                             
    51 p1[2,11]                  265                             
    52 p1[2,12]                  265                             
    53 p1[2,13]                  265                             
    54 p1[2,14]                  265                             
    55 p1[2,15]                  265                             
    56 p1[2,16]                  265                             
    57 p1[2,17]                  265                             
    58 p1[2,18]                  265                             
    59 p1[2,19]                  265                             
    60 p1[2,20]                  265                             
    61 p1[2,21]                  265                             
    62 p1[2,22]                  265                             
    63 p1[2,23]                  265                             
    64 p1[2,24]                  265                             
    65 p1[2,25]                  265                             
    66 p1[2,26]                  265                             
    67 p1[2,27]                  265                             
    68 p1[2,28]                  265                             
    69 p1[2,29]                  265                             
    70 p1[2,30]                -1715                             
    71 p1[3,1]                   275                             
    72 p1[3,2]                   275                             
    73 p1[3,3]                   275                             
    74 p1[3,4]                   275                             
    75 p1[3,5]                   275                             
    76 p1[3,6]                   275                             
    77 p1[3,7]                   275                             
    78 p1[3,8]                   275                             
    79 p1[3,9]                   275                             
    80 p1[3,10]                  275                             
    81 p1[3,11]                  275                             
    82 p1[3,12]                  275                             
    83 p1[3,13]                  275                             
    84 p1[3,14]                  275                             
    85 p1[3,15]                  275                             
    86 p1[3,16]                  275                             
    87 p1[3,17]                  275                             
    88 p1[3,18]                  275                             
    89 p1[3,19]                  275                             
    90 p1[3,20]                  275                             
    91 p1[3,21]                  275                             
    92 p1[3,22]                  275                             
    93 p1[3,23]                  275                             
    94 p1[3,24]                  275                             
    95 p1[3,25]                  275                             
    96 p1[3,26]                  275                             
    97 p1[3,27]                  275                             
    98 p1[3,28]                  275                             
    99 p1[3,29]                  275                             
   100 p1[3,30]                -2515                             
   101 p1[4,1]                   189                             
   102 p1[4,2]                   189                             
   103 p1[4,3]                   189                             
   104 p1[4,4]                   189                             
   105 p1[4,5]                   189                             
   106 p1[4,6]                   189                             
   107 p1[4,7]                   189                             
   108 p1[4,8]                   189                             
   109 p1[4,9]                   189                             
   110 p1[4,10]                  189                             
   111 p1[4,11]                  189                             
   112 p1[4,12]                  189                             
   113 p1[4,13]                  189                             
   114 p1[4,14]                  189                             
   115 p1[4,15]                  189                             
   116 p1[4,16]                  189                             
   117 p1[4,17]                  189                             
   118 p1[4,18]                  189                             
   119 p1[4,19]                  189                             
   120 p1[4,20]                  189                             
   121 p1[4,21]                  189                             
   122 p1[4,22]                  189                             
   123 p1[4,23]                  189                             
   124 p1[4,24]                  189                             
   125 p1[4,25]                  189                             
   126 p1[4,26]                  189                             
   127 p1[4,27]                  189                             
   128 p1[4,28]                  189                             
   129 p1[4,29]                  189                             
   130 p1[4,30]                 -621                             
   131 p1[5,1]                   249                             
   132 p1[5,2]                   249                             
   133 p1[5,3]                   249                             
   134 p1[5,4]                   249                             
   135 p1[5,5]                   249                             
   136 p1[5,6]                   249                             
   137 p1[5,7]                   249                             
   138 p1[5,8]                   249                             
   139 p1[5,9]                   249                             
   140 p1[5,10]                  249                             
   141 p1[5,11]                  249                             
   142 p1[5,12]                  249                             
   143 p1[5,13]                  249                             
   144 p1[5,14]                  249                             
   145 p1[5,15]                  249                             
   146 p1[5,16]                  249                             
   147 p1[5,17]                  249                             
   148 p1[5,18]                  249                             
   149 p1[5,19]                  249                             
   150 p1[5,20]                  249                             
   151 p1[5,21]                  249                             
   152 p1[5,22]                  249                             
   153 p1[5,23]                  249                             
   154 p1[5,24]                  249                             
   155 p1[5,25]                  249                             
   156 p1[5,26]                  249                             
   157 p1[5,27]                  249                             
   158 p1[5,28]                  249                             
   159 p1[5,29]                  249                             
   160 p1[5,30]                 -951                             

   No. Column name       Activity     Lower bound   Upper bound
------ ------------    ------------- ------------- -------------
     1 y[1,1]       *              0             0             1 
     2 y[2,1]       *              0             0             1 
     3 y[3,1]       *              0             0             1 
     4 y[4,1]       *              0             0             1 
     5 y[5,1]       *              0             0             1 
     6 y[6,1]       *              0             0             1 
     7 y[7,1]       *              0             0             1 
     8 y[8,1]       *              0             0             1 
     9 y[9,1]       *              0             0             1 
    10 y[10,1]      *              0             0             1 
    11 y[11,1]      *              0             0             1 
    12 y[12,1]      *              0             0             1 
    13 y[13,1]      *              1             0             1 
    14 y[14,1]      *              1             0             1 
    15 y[15,1]      *              0             0             1 
    16 y[16,1]      *              0             0             1 
    17 y[17,1]      *              0             0             1 
    18 y[18,1]      *              0             0             1 
    19 y[19,1]      *              1             0             1 
    20 y[20,1]      *              0             0             1 
    21 y[21,1]      *              0             0             1 
    22 y[22,1]      *              0             0             1 
    23 y[23,1]      *              0             0             1 
    24 y[24,1]      *              0             0             1 
    25 y[25,1]      *              0             0             1 
    26 y[26,1]      *              0             0             1 
    27 y[27,1]      *              0             0             1 
    28 y[28,1]      *              1             0             1 
    29 y[29,1]      *              0             0             1 
    30 y[30,1]      *              0             0             1 
    31 y[1,2]       *              1             0             1 
    32 y[2,2]       *              1             0             1 
    33 y[3,2]       *              0             0             1 
    34 y[4,2]       *              1             0             1 
    35 y[5,2]       *              0             0             1 
    36 y[6,2]       *              0             0             1 
    37 y[7,2]       *              0             0             1 
    38 y[8,2]       *              0             0             1 
    39 y[9,2]       *              0             0             1 
    40 y[10,2]      *              0             0             1 
    41 y[11,2]      *              0             0             1 
    42 y[12,2]      *              0             0             1 
    43 y[13,2]      *              0             0             1 
    44 y[14,2]      *              0             0             1 
    45 y[15,2]      *              0             0             1 
    46 y[16,2]      *              0             0             1 
    47 y[17,2]      *              0             0             1 
    48 y[18,2]      *              0             0             1 
    49 y[19,2]      *              0             0             1 
    50 y[20,2]      *              0             0             1 
    51 y[21,2]      *              0             0             1 
    52 y[22,2]      *              0             0             1 
    53 y[23,2]      *              0             0             1 
    54 y[24,2]      *              0             0             1 
    55 y[25,2]      *              0             0             1 
    56 y[26,2]      *              0             0             1 
    57 y[27,2]      *              0             0             1 
    58 y[28,2]      *              0             0             1 
    59 y[29,2]      *              0             0             1 
    60 y[30,2]      *              1             0             1 
    61 y[1,3]       *              1             0             1 
    62 y[2,3]       *              1             0             1 
    63 y[3,3]       *              0             0             1 
    64 y[4,3]       *              1             0             1 
    65 y[5,3]       *              0             0             1 
    66 y[6,3]       *              0             0             1 
    67 y[7,3]       *              0             0             1 
    68 y[8,3]       *              0             0             1 
    69 y[9,3]       *              0             0             1 
    70 y[10,3]      *              0             0             1 
    71 y[11,3]      *              0             0             1 
    72 y[12,3]      *              0             0             1 
    73 y[13,3]      *              0             0             1 
    74 y[14,3]      *              0             0             1 
    75 y[15,3]      *              0             0             1 
    76 y[16,3]      *              0             0             1 
    77 y[17,3]      *              0             0             1 
    78 y[18,3]      *              0             0             1 
    79 y[19,3]      *              0             0             1 
    80 y[20,3]      *              0             0             1 
    81 y[21,3]      *              0             0             1 
    82 y[22,3]      *              0             0             1 
    83 y[23,3]      *              0             0             1 
    84 y[24,3]      *              0             0             1 
    85 y[25,3]      *              0             0             1 
    86 y[26,3]      *              0             0             1 
    87 y[27,3]      *              0             0             1 
    88 y[28,3]      *              0             0             1 
    89 y[29,3]      *              0             0             1 
    90 y[30,3]      *              1             0             1 
    91 y[1,4]       *              1             0             1 
    92 y[2,4]       *              1             0             1 
    93 y[3,4]       *              0             0             1 
    94 y[4,4]       *              1             0             1 
    95 y[5,4]       *              0             0             1 
    96 y[6,4]       *              0             0             1 
    97 y[7,4]       *              0             0             1 
    98 y[8,4]       *              0             0             1 
    99 y[9,4]       *              0             0             1 
   100 y[10,4]      *              0             0             1 
   101 y[11,4]      *              0             0             1 
   102 y[12,4]      *              0             0             1 
   103 y[13,4]      *              0             0             1 
   104 y[14,4]      *              0             0             1 
   105 y[15,4]      *              0             0             1 
   106 y[16,4]      *              0             0             1 
   107 y[17,4]      *              0             0             1 
   108 y[18,4]      *              0             0             1 
   109 y[19,4]      *              0             0             1 
   110 y[20,4]      *              0             0             1 
   111 y[21,4]      *              0             0             1 
   112 y[22,4]      *              0             0             1 
   113 y[23,4]      *              0             0             1 
   114 y[24,4]      *              0             0             1 
   115 y[25,4]      *              0             0             1 
   116 y[26,4]      *              0             0             1 
   117 y[27,4]      *              0             0             1 
   118 y[28,4]      *              0             0             1 
   119 y[29,4]      *              0             0             1 
   120 y[30,4]      *              1             0             1 
   121 y[1,5]       *              1             0             1 
   122 y[2,5]       *              1             0             1 
   123 y[3,5]       *              0             0             1 
   124 y[4,5]       *              0             0             1 
   125 y[5,5]       *              0             0             1 
   126 y[6,5]       *              0             0             1 
   127 y[7,5]       *              0             0             1 
   128 y[8,5]       *              0             0             1 
   129 y[9,5]       *              0             0             1 
   130 y[10,5]      *              0             0             1 
   131 y[11,5]      *              0             0             1 
   132 y[12,5]      *              0             0             1 
   133 y[13,5]      *              0             0             1 
   134 y[14,5]      *              0             0             1 
   135 y[15,5]      *              0             0             1 
   136 y[16,5]      *              0             0             1 
   137 y[17,5]      *              0             0             1 
   138 y[18,5]      *              0             0             1 
   139 y[19,5]      *              0             0             1 
   140 y[20,5]      *              0             0             1 
   141 y[21,5]      *              0             0             1 
   142 y[22,5]      *              0             0             1 
   143 y[23,5]      *              0             0             1 
   144 y[24,5]      *              0             0             1 
   145 y[25,5]      *              0             0             1 
   146 y[26,5]      *              0             0             1 
   147 y[27,5]      *              0             0             1 
   148 y[28,5]      *              0             0             1 
   149 y[29,5]      *              1             0             1 
   150 y[30,5]      *              1             0             1 
   151 x[1,1]       *              1             0             1 
   152 x[2,1]       *              0             0             1 
   153 x[3,1]       *              0             0             1 
   154 x[4,1]       *              0             0             1 
   155 x[5,1]       *              0             0             1 
   156 x[6,1]       *              0             0             1 
   157 x[7,1]       *              0             0             1 
   158 x[8,1]       *              0             0             1 
   159 x[9,1]       *              0             0             1 
   160 x[10,1]      *              0             0             1 
   161 x[11,1]      *              0             0             1 
   162 x[12,1]      *              0             0             1 
   163 x[13,1]      *              0             0             1 
   164 x[14,1]      *              0             0             1 
   165 x[15,1]      *              0             0             1 
   166 x[16,1]      *              0             0             1 
   167 x[17,1]      *              0             0             1 
   168 x[18,1]      *              0             0             1 
   169 x[19,1]      *              0             0             1 
   170 x[20,1]      *              0             0             1 
   171 x[21,1]      *              0             0             1 
   172 x[22,1]      *              0             0             1 
   173 x[23,1]      *              0             0             1 
   174 x[24,1]      *              0             0             1 
   175 x[25,1]      *              0             0             1 
   176 x[26,1]      *              0             0             1 
   177 x[27,1]      *              0             0             1 
   178 x[28,1]      *              0             0             1 
   179 x[29,1]      *              0             0             1 
   180 x[30,1]      *              0             0             1 
   181 x[1,2]       *              0             0             1 
   182 x[2,2]       *              0             0             1 
   183 x[3,2]       *              0             0             1 
   184 x[4,2]       *              0             0             1 
   185 x[5,2]       *              0             0             1 
   186 x[6,2]       *              0             0             1 
   187 x[7,2]       *              0             0             1 
   188 x[8,2]       *              0             0             1 
   189 x[9,2]       *              0             0             1 
   190 x[10,2]      *              0             0             1 
   191 x[11,2]      *              0             0             1 
   192 x[12,2]      *              0             0             1 
   193 x[13,2]      *              0             0             1 
   194 x[14,2]      *              0             0             1 
   195 x[15,2]      *              0             0             1 
   196 x[16,2]      *              0             0             1 
   197 x[17,2]      *              0             0             1 
   198 x[18,2]      *              0             0             1 
   199 x[19,2]      *              0             0             1 
   200 x[20,2]      *              0             0             1 
   201 x[21,2]      *              0             0             1 
   202 x[22,2]      *              0             0             1 
   203 x[23,2]      *              0             0             1 
   204 x[24,2]      *              0             0             1 
   205 x[25,2]      *              0             0             1 
   206 x[26,2]      *              0             0             1 
   207 x[27,2]      *              0             0             1 
   208 x[28,2]      *              0             0             1 
   209 x[29,2]      *              0             0             1 
   210 x[30,2]      *              1             0             1 
   211 x[1,3]       *              0             0             1 
   212 x[2,3]       *              0             0             1 
   213 x[3,3]       *              0             0             1 
   214 x[4,3]       *              0             0             1 
   215 x[5,3]       *              0             0             1 
   216 x[6,3]       *              0             0             1 
   217 x[7,3]       *              0             0             1 
   218 x[8,3]       *              0             0             1 
   219 x[9,3]       *              0             0             1 
   220 x[10,3]      *              0             0             1 
   221 x[11,3]      *              0             0             1 
   222 x[12,3]      *              0             0             1 
   223 x[13,3]      *              0             0             1 
   224 x[14,3]      *              0             0             1 
   225 x[15,3]      *              0             0             1 
   226 x[16,3]      *              0             0             1 
   227 x[17,3]      *              0             0             1 
   228 x[18,3]      *              0             0             1 
   229 x[19,3]      *              0             0             1 
   230 x[20,3]      *              0             0             1 
   231 x[21,3]      *              0             0             1 
   232 x[22,3]      *              0             0             1 
   233 x[23,3]      *              0             0             1 
   234 x[24,3]      *              0             0             1 
   235 x[25,3]      *              0             0             1 
   236 x[26,3]      *              0             0             1 
   237 x[27,3]      *              0             0             1 
   238 x[28,3]      *              0             0             1 
   239 x[29,3]      *              0             0             1 
   240 x[30,3]      *              1             0             1 
   241 x[1,4]       *              0             0             1 
   242 x[2,4]       *              0             0             1 
   243 x[3,4]       *              0             0             1 
   244 x[4,4]       *              0             0             1 
   245 x[5,4]       *              0             0             1 
   246 x[6,4]       *              0             0             1 
   247 x[7,4]       *              0             0             1 
   248 x[8,4]       *              0             0             1 
   249 x[9,4]       *              0             0             1 
   250 x[10,4]      *              0             0             1 
   251 x[11,4]      *              0             0             1 
   252 x[12,4]      *              0             0             1 
   253 x[13,4]      *              0             0             1 
   254 x[14,4]      *              0             0             1 
   255 x[15,4]      *              0             0             1 
   256 x[16,4]      *              0             0             1 
   257 x[17,4]      *              0             0             1 
   258 x[18,4]      *              0             0             1 
   259 x[19,4]      *              0             0             1 
   260 x[20,4]      *              0             0             1 
   261 x[21,4]      *              0             0             1 
   262 x[22,4]      *              0             0             1 
   263 x[23,4]      *              0             0             1 
   264 x[24,4]      *              0             0             1 
   265 x[25,4]      *              0             0             1 
   266 x[26,4]      *              0             0             1 
   267 x[27,4]      *              0             0             1 
   268 x[28,4]      *              0             0             1 
   269 x[29,4]      *              0             0             1 
   270 x[30,4]      *              1             0             1 
   271 x[1,5]       *              0             0             1 
   272 x[2,5]       *              0             0             1 
   273 x[3,5]       *              0             0             1 
   274 x[4,5]       *              0             0             1 
   275 x[5,5]       *              0             0             1 
   276 x[6,5]       *              0             0             1 
   277 x[7,5]       *              0             0             1 
   278 x[8,5]       *              0             0             1 
   279 x[9,5]       *              0             0             1 
   280 x[10,5]      *              0             0             1 
   281 x[11,5]      *              0             0             1 
   282 x[12,5]      *              0             0             1 
   283 x[13,5]      *              0             0             1 
   284 x[14,5]      *              0             0             1 
   285 x[15,5]      *              0             0             1 
   286 x[16,5]      *              0             0             1 
   287 x[17,5]      *              0             0             1 
   288 x[18,5]      *              0             0             1 
   289 x[19,5]      *              0             0             1 
   290 x[20,5]      *              0             0             1 
   291 x[21,5]      *              0             0             1 
   292 x[22,5]      *              0             0             1 
   293 x[23,5]      *              0             0             1 
   294 x[24,5]      *              0             0             1 
   295 x[25,5]      *              0             0             1 
   296 x[26,5]      *              0             0             1 
   297 x[27,5]      *              0             0             1 
   298 x[28,5]      *              0             0             1 
   299 x[29,5]      *              0             0             1 
   300 x[30,5]      *              1             0             1 

Integer feasibility conditions:

KKT.PE: max.abs.err = 0.00e+000 on row 0
        max.rel.err = 0.00e+000 on row 0
        High quality

KKT.PB: max.abs.err = 0.00e+000 on row 0
        max.rel.err = 0.00e+000 on row 0
        High quality

End of output
